
******************************************************************************
This program contains Ipopt, a library for large-scale nonlinear optimization.
 Ipopt is released as open source code under the Eclipse Public License (EPL).
         For more information visit http://projects.coin-or.org/Ipopt
******************************************************************************

This is Ipopt version 3.12.13, running with linear solver mumps.
NOTE: Other linear solvers might be more efficient (see Ipopt documentation).

Number of nonzeros in equality constraint Jacobian...:        0
Number of nonzeros in inequality constraint Jacobian.:      272
Number of nonzeros in Lagrangian Hessian.............:        0

Total number of variables............................:       47
                     variables with only lower bounds:       41
                variables with lower and upper bounds:        0
                     variables with only upper bounds:        0
Total number of equality constraints.................:        0
Total number of inequality constraints...............:       40
        inequality constraints with only lower bounds:        0
   inequality constraints with lower and upper bounds:       40
        inequality constraints with only upper bounds:        0

iter    objective    inf_pr   inf_du lg(mu)  ||d||  lg(rg) alpha_du alpha_pr  ls
   0 -8.9999950e+01 2.00e-02 6.77e+00   0.0 0.00e+00    -  0.00e+00 0.00e+00   0
   1 -1.1793345e+02 7.79e-02 5.80e+00  -1.6 8.58e-01    -  3.78e-01 1.43e-01f  2
   2 -4.0779285e+01 8.04e-02 4.35e+00  -2.8 6.15e-02    -  8.23e-01 2.51e-01h  1
   3 -4.0393514e+01 8.76e-02 2.11e+01  -1.5 4.98e+00    -  7.09e-02 1.03e-03h  2
   4 -4.0198700e+01 9.17e-02 1.86e+02  -1.5 5.63e+00    -  8.63e-02 5.73e-03h  2
   5 -4.0001937e+01 9.22e-02 4.30e+02  -1.5 6.47e+00    -  7.50e-02 3.46e-02h  1
   6 -4.0002380e+01 9.22e-02 8.01e+03  -1.5 6.61e+00    -  1.23e-01 1.11e-02h  1
   7 -3.9999974e+01 9.22e-02 1.08e+07  -1.5 7.20e+00    -  1.43e-01 1.18e-04h  1
   8r-3.9999974e+01 9.22e-02 1.00e+03  -1.0 0.00e+00    -  0.00e+00 2.99e-07R  4
   9r-4.0002050e+01 9.22e-02 1.60e+04  -0.9 2.34e+01    -  1.00e+00 3.34e-03f  1
iter    objective    inf_pr   inf_du lg(mu)  ||d||  lg(rg) alpha_du alpha_pr  ls
  10r-3.9999998e+01 9.22e-02 3.38e+02  -6.2 8.52e-01    -  5.71e-01 9.80e-01f  1
  11r-4.0000309e+01 9.22e-02 1.59e+00  -2.9 1.76e-01    -  9.66e-01 9.97e-01f  1
  12r-4.0000405e+01 9.22e-02 6.10e-02  -2.8 1.19e+00    -  8.20e-01 1.00e+00h  1
  13r-4.0000303e+01 9.22e-02 5.13e-03  -2.9 8.62e-01    -  1.00e+00 1.00e+00h  1
  14r-3.9999953e+01 9.22e-02 1.77e-02  -5.0 5.43e-01    -  9.45e-01 1.00e+00h  1
  15r-4.0000040e+01 9.22e-02 5.24e-02  -3.5 4.39e-01    -  7.27e-01 1.00e+00h  1
  16r-4.0000013e+01 9.22e-02 3.15e-04  -3.7 1.12e-01    -  9.93e-01 1.00e+00h  1
  17r-3.9999950e+01 9.22e-02 2.99e-03  -5.8 1.19e-01    -  8.57e-01 1.00e+00h  1
  18r-3.9999951e+01 9.22e-02 3.28e-05  -5.5 7.23e-02    -  1.00e+00 1.00e+00h  1

Number of Iterations....: 18

                                   (scaled)                 (unscaled)
Objective...............:  -7.9999900028540905e-01   -3.9999950014270453e+01
Dual infeasibility......:   1.0000000000875298e+02    5.0000000004376489e+03
Constraint violation....:   9.2206713433288873e-02    9.2206713433288873e-02
Complementarity.........:   2.4176609376751334e-06    1.2088304688375667e-04
Overall NLP error.......:   2.5156249758953532e+01    5.0000000004376489e+03


Number of objective function evaluations             = 30
Number of objective gradient evaluations             = 10
Number of equality constraint evaluations            = 0
Number of inequality constraint evaluations          = 30
Number of equality constraint Jacobian evaluations   = 0
Number of inequality constraint Jacobian evaluations = 1
Number of Lagrangian Hessian evaluations             = 2
Total CPU secs in IPOPT (w/o function evaluations)   =      0.030
Total CPU secs in NLP function evaluations           =      0.000

EXIT: Converged to a point of local infeasibility. Problem may be infeasible.
